NAME: generated_5_sym_1_100_UniformDistrib_noSparse.tsp
TYPE: TSP
COMMENT: Test case generated with custom generator!
DIMENSION: 5
EDGE_WEIGHT_TYPE: EXPLICIT
EDGE_WEIGHT_FORMAT: FULL_MATRIX
DISPLAY_DATA_TYPE: TWOD_DISPLAY
EDGE_WEIGHT_SECTION
0 37 83 60 19 
37 0 53 100 39 
83 53 0 28 91 
60 100 28 0 64 
19 39 91 64 0 
